p tw 364 363
1 2
1 3
1 4
2 5
2 6
2 7
11 32
11 33
11 34
101 302
101 303
101 304
102 305
102 306
102 307
103 308
103 309
103 310
104 311
104 312
104 313
105 314
105 315
105 316
106 317
106 318
106 319
107 320
107 321
107 322
108 323
108 324
108 325
109 326
109 327
109 328
110 329
110 330
110 331
12 35
12 36
12 37
111 332
111 333
111 334
112 335
112 336
112 337
113 338
113 339
113 340
114 341
114 342
114 343
115 344
115 345
115 346
116 347
116 348
116 349
117 350
117 351
117 352
118 353
118 354
118 355
119 356
119 357
119 358
120 359
120 360
120 361
13 38
13 39
13 40
121 362
121 363
121 364
14 41
14 42
14 43
15 44
15 45
15 46
16 47
16 48
16 49
17 50
17 51
17 52
18 53
18 54
18 55
19 56
19 57
19 58
20 59
20 60
20 61
3 8
3 9
3 10
21 62
21 63
21 64
22 65
22 66
22 67
23 68
23 69
23 70
24 71
24 72
24 73
25 74
25 75
25 76
26 77
26 78
26 79
27 80
27 81
27 82
28 83
28 84
28 85
29 86
29 87
29 88
30 89
30 90
30 91
4 11
4 12
4 13
31 92
31 93
31 94
32 95
32 96
32 97
33 98
33 99
33 100
34 101
34 102
34 103
35 104
35 105
35 106
36 107
36 108
36 109
37 110
37 111
37 112
38 113
38 114
38 115
39 116
39 117
39 118
40 119
40 120
40 121
5 14
5 15
5 16
41 122
41 123
41 124
42 125
42 126
42 127
43 128
43 129
43 130
44 131
44 132
44 133
45 134
45 135
45 136
46 137
46 138
46 139
47 140
47 141
47 142
48 143
48 144
48 145
49 146
49 147
49 148
50 149
50 150
50 151
6 17
6 18
6 19
51 152
51 153
51 154
52 155
52 156
52 157
53 158
53 159
53 160
54 161
54 162
54 163
55 164
55 165
55 166
56 167
56 168
56 169
57 170
57 171
57 172
58 173
58 174
58 175
59 176
59 177
59 178
60 179
60 180
60 181
7 20
7 21
7 22
61 182
61 183
61 184
62 185
62 186
62 187
63 188
63 189
63 190
64 191
64 192
64 193
65 194
65 195
65 196
66 197
66 198
66 199
67 200
67 201
67 202
68 203
68 204
68 205
69 206
69 207
69 208
70 209
70 210
70 211
8 23
8 24
8 25
71 212
71 213
71 214
72 215
72 216
72 217
73 218
73 219
73 220
74 221
74 222
74 223
75 224
75 225
75 226
76 227
76 228
76 229
77 230
77 231
77 232
78 233
78 234
78 235
79 236
79 237
79 238
80 239
80 240
80 241
9 26
9 27
9 28
81 242
81 243
81 244
82 245
82 246
82 247
83 248
83 249
83 250
84 251
84 252
84 253
85 254
85 255
85 256
86 257
86 258
86 259
87 260
87 261
87 262
88 263
88 264
88 265
89 266
89 267
89 268
90 269
90 270
90 271
10 29
10 30
10 31
91 272
91 273
91 274
92 275
92 276
92 277
93 278
93 279
93 280
94 281
94 282
94 283
95 284
95 285
95 286
96 287
96 288
96 289
97 290
97 291
97 292
98 293
98 294
98 295
99 296
99 297
99 298
100 299
100 300
100 301
